p cnf 246 832
c p weight -97 1 0
c p weight 97 -1 0
c p weight 101 6.12323399573676603586882014729198302312846062338790031898128063403419218957424163818359375E-17 0
c p weight -101 1 0
c p weight 102 1 0
c p weight -102 1 0
c p weight -99 1 0
c p weight 99 -1 0
c p weight -103 1 0
c p weight 103 -1 0
c p weight -105 1 0
c p weight 105 -1 0
c p weight -108 1 0
c p weight 108 -1 0
c p weight -111 1 0
c p weight 111 -1 0
c p weight -114 1 0
c p weight 114 -1 0
c p weight -117 1 0
c p weight 117 -1 0
c p weight -120 1 0
c p weight 120 -1 0
c p weight -123 1 0
c p weight 123 -1 0
c p weight -126 1 0
c p weight 126 -1 0
c p weight -129 1 0
c p weight 129 -1 0
c p weight -132 1 0
c p weight 132 -1 0
c p weight -135 1 0
c p weight 135 -1 0
c p weight -138 1 0
c p weight 138 -1 0
c p weight -141 1 0
c p weight 141 -1 0
c p weight -144 1 0
c p weight 144 -1 0
c p weight -147 1 0
c p weight 147 -1 0
c p weight -150 1 0
c p weight 150 -1 0
c p weight -153 1 0
c p weight 153 -1 0
c p weight -156 1 0
c p weight 156 -1 0
c p weight -159 1 0
c p weight 159 -1 0
c p weight -162 1 0
c p weight 162 -1 0
c p weight -165 1 0
c p weight 165 -1 0
c p weight -168 1 0
c p weight 168 -1 0
c p weight -171 1 0
c p weight 171 -1 0
c p weight -174 1 0
c p weight 174 -1 0
c p weight -177 1 0
c p weight 177 -1 0
c p weight -180 1 0
c p weight 180 -1 0
c p weight -183 1 0
c p weight 183 -1 0
c p weight -186 1 0
c p weight 186 -1 0
c p weight -189 1 0
c p weight 189 -1 0
c p weight -192 1 0
c p weight 192 -1 0
c p weight -195 1 0
c p weight 195 -1 0
c p weight -198 1 0
c p weight 198 -1 0
c p weight -201 1 0
c p weight 201 -1 0
c p weight -204 1 0
c p weight 204 -1 0
c p weight -207 1 0
c p weight 207 -1 0
c p weight -210 1 0
c p weight 210 -1 0
c p weight -213 1 0
c p weight 213 -1 0
c p weight -216 1 0
c p weight 216 -1 0
c p weight -219 1 0
c p weight 219 -1 0
c p weight -222 1 0
c p weight 222 -1 0
c p weight -225 1 0
c p weight 225 -1 0
c p weight -228 1 0
c p weight 228 -1 0
c p weight -231 1 0
c p weight 231 -1 0
c p weight -234 1 0
c p weight 234 -1 0
c p weight -237 1 0
c p weight 237 -1 0
c p weight -240 1 0
c p weight 240 -1 0
c p weight -243 1 0
c p weight 243 -1 0
c p weight 246 0.5 0
c p weight -246 1 0
246 0
-95 0
-93 0
-91 0
-89 0
-87 0
-85 0
-83 0
-81 0
-79 0
-77 0
-75 0
-73 0
-71 0
-69 0
-67 0
-65 0
-63 0
-61 0
-59 0
-57 0
-55 0
-53 0
-51 0
-49 0
-47 0
-45 0
-43 0
-41 0
-39 0
-37 0
-35 0
-33 0
-31 0
-29 0
-27 0
-25 0
-23 0
-21 0
-19 0
-17 0
-15 0
-13 0
-11 0
-9 0
-7 0
-5 0
-3 0
-1 0
-97 95 0
-97 96 0
97 -95 -96 0
98 95 -96 0
98 -95 96 0
-98 95 96 0
-98 -95 -96 0
-99 100 0
-99 98 0
-99 -95 0
99 -100 95 -98 0
100 -95 98 0
-100 95 98 0
-101 98 0
100 -101 -95 0
-100 -101 95 0
100 101 95 -98 0
-100 101 -95 -98 0
-102 98 0
100 -102 95 0
-100 -102 -95 0
100 102 -95 -98 0
-100 102 95 -98 0
-103 100 0
-103 98 0
103 -100 -98 0
104 100 -98 0
104 -100 98 0
-104 100 98 0
-104 -100 -98 0
-105 100 0
-105 94 0
-105 93 -104 0
-105 -93 104 0
105 -100 93 104 -94 0
105 -100 -93 -104 -94 0
107 100 -93 0
107 -100 93 0
-107 100 93 0
-107 -100 -93 0
106 104 -94 0
106 -104 94 0
-106 104 94 0
-106 -104 -94 0
-108 107 0
-108 92 0
-108 91 -94 0
-108 -91 94 0
108 -107 91 94 -92 0
108 -107 -91 -94 -92 0
110 107 -91 0
110 -107 91 0
-110 107 91 0
-110 -107 -91 0
109 94 -92 0
109 -94 92 0
-109 94 92 0
-109 -94 -92 0
-111 110 0
-111 90 0
-111 89 -92 0
-111 -89 92 0
111 -110 89 92 -90 0
111 -110 -89 -92 -90 0
113 110 -89 0
113 -110 89 0
-113 110 89 0
-113 -110 -89 0
112 92 -90 0
112 -92 90 0
-112 92 90 0
-112 -92 -90 0
-114 113 0
-114 88 0
-114 87 -90 0
-114 -87 90 0
114 -113 87 90 -88 0
114 -113 -87 -90 -88 0
116 113 -87 0
116 -113 87 0
-116 113 87 0
-116 -113 -87 0
115 90 -88 0
115 -90 88 0
-115 90 88 0
-115 -90 -88 0
-117 116 0
-117 86 0
-117 85 -88 0
-117 -85 88 0
117 -116 85 88 -86 0
117 -116 -85 -88 -86 0
119 116 -85 0
119 -116 85 0
-119 116 85 0
-119 -116 -85 0
118 88 -86 0
118 -88 86 0
-118 88 86 0
-118 -88 -86 0
-120 119 0
-120 84 0
-120 83 -86 0
-120 -83 86 0
120 -119 83 86 -84 0
120 -119 -83 -86 -84 0
122 119 -83 0
122 -119 83 0
-122 119 83 0
-122 -119 -83 0
121 86 -84 0
121 -86 84 0
-121 86 84 0
-121 -86 -84 0
-123 122 0
-123 82 0
-123 81 -84 0
-123 -81 84 0
123 -122 81 84 -82 0
123 -122 -81 -84 -82 0
125 122 -81 0
125 -122 81 0
-125 122 81 0
-125 -122 -81 0
124 84 -82 0
124 -84 82 0
-124 84 82 0
-124 -84 -82 0
-126 125 0
-126 80 0
-126 79 -82 0
-126 -79 82 0
126 -125 79 82 -80 0
126 -125 -79 -82 -80 0
128 125 -79 0
128 -125 79 0
-128 125 79 0
-128 -125 -79 0
127 82 -80 0
127 -82 80 0
-127 82 80 0
-127 -82 -80 0
-129 128 0
-129 78 0
-129 77 -80 0
-129 -77 80 0
129 -128 77 80 -78 0
129 -128 -77 -80 -78 0
131 128 -77 0
131 -128 77 0
-131 128 77 0
-131 -128 -77 0
130 80 -78 0
130 -80 78 0
-130 80 78 0
-130 -80 -78 0
-132 131 0
-132 76 0
-132 75 -78 0
-132 -75 78 0
132 -131 75 78 -76 0
132 -131 -75 -78 -76 0
134 131 -75 0
134 -131 75 0
-134 131 75 0
-134 -131 -75 0
133 78 -76 0
133 -78 76 0
-133 78 76 0
-133 -78 -76 0
-135 134 0
-135 74 0
-135 73 -76 0
-135 -73 76 0
135 -134 73 76 -74 0
135 -134 -73 -76 -74 0
137 134 -73 0
137 -134 73 0
-137 134 73 0
-137 -134 -73 0
136 76 -74 0
136 -76 74 0
-136 76 74 0
-136 -76 -74 0
-138 137 0
-138 72 0
-138 71 -74 0
-138 -71 74 0
138 -137 71 74 -72 0
138 -137 -71 -74 -72 0
140 137 -71 0
140 -137 71 0
-140 137 71 0
-140 -137 -71 0
139 74 -72 0
139 -74 72 0
-139 74 72 0
-139 -74 -72 0
-141 140 0
-141 70 0
-141 69 -72 0
-141 -69 72 0
141 -140 69 72 -70 0
141 -140 -69 -72 -70 0
143 140 -69 0
143 -140 69 0
-143 140 69 0
-143 -140 -69 0
142 72 -70 0
142 -72 70 0
-142 72 70 0
-142 -72 -70 0
-144 143 0
-144 68 0
-144 67 -70 0
-144 -67 70 0
144 -143 67 70 -68 0
144 -143 -67 -70 -68 0
146 143 -67 0
146 -143 67 0
-146 143 67 0
-146 -143 -67 0
145 70 -68 0
145 -70 68 0
-145 70 68 0
-145 -70 -68 0
-147 146 0
-147 66 0
-147 65 -68 0
-147 -65 68 0
147 -146 65 68 -66 0
147 -146 -65 -68 -66 0
149 146 -65 0
149 -146 65 0
-149 146 65 0
-149 -146 -65 0
148 68 -66 0
148 -68 66 0
-148 68 66 0
-148 -68 -66 0
-150 149 0
-150 64 0
-150 63 -66 0
-150 -63 66 0
150 -149 63 66 -64 0
150 -149 -63 -66 -64 0
152 149 -63 0
152 -149 63 0
-152 149 63 0
-152 -149 -63 0
151 66 -64 0
151 -66 64 0
-151 66 64 0
-151 -66 -64 0
-153 152 0
-153 62 0
-153 61 -64 0
-153 -61 64 0
153 -152 61 64 -62 0
153 -152 -61 -64 -62 0
155 152 -61 0
155 -152 61 0
-155 152 61 0
-155 -152 -61 0
154 64 -62 0
154 -64 62 0
-154 64 62 0
-154 -64 -62 0
-156 155 0
-156 60 0
-156 59 -62 0
-156 -59 62 0
156 -155 59 62 -60 0
156 -155 -59 -62 -60 0
158 155 -59 0
158 -155 59 0
-158 155 59 0
-158 -155 -59 0
157 62 -60 0
157 -62 60 0
-157 62 60 0
-157 -62 -60 0
-159 158 0
-159 58 0
-159 57 -60 0
-159 -57 60 0
159 -158 57 60 -58 0
159 -158 -57 -60 -58 0
161 158 -57 0
161 -158 57 0
-161 158 57 0
-161 -158 -57 0
160 60 -58 0
160 -60 58 0
-160 60 58 0
-160 -60 -58 0
-162 161 0
-162 56 0
-162 55 -58 0
-162 -55 58 0
162 -161 55 58 -56 0
162 -161 -55 -58 -56 0
164 161 -55 0
164 -161 55 0
-164 161 55 0
-164 -161 -55 0
163 58 -56 0
163 -58 56 0
-163 58 56 0
-163 -58 -56 0
-165 164 0
-165 54 0
-165 53 -56 0
-165 -53 56 0
165 -164 53 56 -54 0
165 -164 -53 -56 -54 0
167 164 -53 0
167 -164 53 0
-167 164 53 0
-167 -164 -53 0
166 56 -54 0
166 -56 54 0
-166 56 54 0
-166 -56 -54 0
-168 167 0
-168 52 0
-168 51 -54 0
-168 -51 54 0
168 -167 51 54 -52 0
168 -167 -51 -54 -52 0
170 167 -51 0
170 -167 51 0
-170 167 51 0
-170 -167 -51 0
169 54 -52 0
169 -54 52 0
-169 54 52 0
-169 -54 -52 0
-171 170 0
-171 50 0
-171 49 -52 0
-171 -49 52 0
171 -170 49 52 -50 0
171 -170 -49 -52 -50 0
173 170 -49 0
173 -170 49 0
-173 170 49 0
-173 -170 -49 0
172 52 -50 0
172 -52 50 0
-172 52 50 0
-172 -52 -50 0
-174 173 0
-174 48 0
-174 47 -50 0
-174 -47 50 0
174 -173 47 50 -48 0
174 -173 -47 -50 -48 0
176 173 -47 0
176 -173 47 0
-176 173 47 0
-176 -173 -47 0
175 50 -48 0
175 -50 48 0
-175 50 48 0
-175 -50 -48 0
-177 176 0
-177 46 0
-177 45 -48 0
-177 -45 48 0
177 -176 45 48 -46 0
177 -176 -45 -48 -46 0
179 176 -45 0
179 -176 45 0
-179 176 45 0
-179 -176 -45 0
178 48 -46 0
178 -48 46 0
-178 48 46 0
-178 -48 -46 0
-180 179 0
-180 44 0
-180 43 -46 0
-180 -43 46 0
180 -179 43 46 -44 0
180 -179 -43 -46 -44 0
182 179 -43 0
182 -179 43 0
-182 179 43 0
-182 -179 -43 0
181 46 -44 0
181 -46 44 0
-181 46 44 0
-181 -46 -44 0
-183 182 0
-183 42 0
-183 41 -44 0
-183 -41 44 0
183 -182 41 44 -42 0
183 -182 -41 -44 -42 0
185 182 -41 0
185 -182 41 0
-185 182 41 0
-185 -182 -41 0
184 44 -42 0
184 -44 42 0
-184 44 42 0
-184 -44 -42 0
-186 185 0
-186 40 0
-186 39 -42 0
-186 -39 42 0
186 -185 39 42 -40 0
186 -185 -39 -42 -40 0
188 185 -39 0
188 -185 39 0
-188 185 39 0
-188 -185 -39 0
187 42 -40 0
187 -42 40 0
-187 42 40 0
-187 -42 -40 0
-189 188 0
-189 38 0
-189 37 -40 0
-189 -37 40 0
189 -188 37 40 -38 0
189 -188 -37 -40 -38 0
191 188 -37 0
191 -188 37 0
-191 188 37 0
-191 -188 -37 0
190 40 -38 0
190 -40 38 0
-190 40 38 0
-190 -40 -38 0
-192 191 0
-192 36 0
-192 35 -38 0
-192 -35 38 0
192 -191 35 38 -36 0
192 -191 -35 -38 -36 0
194 191 -35 0
194 -191 35 0
-194 191 35 0
-194 -191 -35 0
193 38 -36 0
193 -38 36 0
-193 38 36 0
-193 -38 -36 0
-195 194 0
-195 34 0
-195 33 -36 0
-195 -33 36 0
195 -194 33 36 -34 0
195 -194 -33 -36 -34 0
197 194 -33 0
197 -194 33 0
-197 194 33 0
-197 -194 -33 0
196 36 -34 0
196 -36 34 0
-196 36 34 0
-196 -36 -34 0
-198 197 0
-198 32 0
-198 31 -34 0
-198 -31 34 0
198 -197 31 34 -32 0
198 -197 -31 -34 -32 0
200 197 -31 0
200 -197 31 0
-200 197 31 0
-200 -197 -31 0
199 34 -32 0
199 -34 32 0
-199 34 32 0
-199 -34 -32 0
-201 200 0
-201 30 0
-201 29 -32 0
-201 -29 32 0
201 -200 29 32 -30 0
201 -200 -29 -32 -30 0
203 200 -29 0
203 -200 29 0
-203 200 29 0
-203 -200 -29 0
202 32 -30 0
202 -32 30 0
-202 32 30 0
-202 -32 -30 0
-204 203 0
-204 28 0
-204 27 -30 0
-204 -27 30 0
204 -203 27 30 -28 0
204 -203 -27 -30 -28 0
206 203 -27 0
206 -203 27 0
-206 203 27 0
-206 -203 -27 0
205 30 -28 0
205 -30 28 0
-205 30 28 0
-205 -30 -28 0
-207 206 0
-207 26 0
-207 25 -28 0
-207 -25 28 0
207 -206 25 28 -26 0
207 -206 -25 -28 -26 0
209 206 -25 0
209 -206 25 0
-209 206 25 0
-209 -206 -25 0
208 28 -26 0
208 -28 26 0
-208 28 26 0
-208 -28 -26 0
-210 209 0
-210 24 0
-210 23 -26 0
-210 -23 26 0
210 -209 23 26 -24 0
210 -209 -23 -26 -24 0
212 209 -23 0
212 -209 23 0
-212 209 23 0
-212 -209 -23 0
211 26 -24 0
211 -26 24 0
-211 26 24 0
-211 -26 -24 0
-213 212 0
-213 22 0
-213 21 -24 0
-213 -21 24 0
213 -212 21 24 -22 0
213 -212 -21 -24 -22 0
215 212 -21 0
215 -212 21 0
-215 212 21 0
-215 -212 -21 0
214 24 -22 0
214 -24 22 0
-214 24 22 0
-214 -24 -22 0
-216 215 0
-216 20 0
-216 19 -22 0
-216 -19 22 0
216 -215 19 22 -20 0
216 -215 -19 -22 -20 0
218 215 -19 0
218 -215 19 0
-218 215 19 0
-218 -215 -19 0
217 22 -20 0
217 -22 20 0
-217 22 20 0
-217 -22 -20 0
-219 218 0
-219 18 0
-219 17 -20 0
-219 -17 20 0
219 -218 17 20 -18 0
219 -218 -17 -20 -18 0
221 218 -17 0
221 -218 17 0
-221 218 17 0
-221 -218 -17 0
220 20 -18 0
220 -20 18 0
-220 20 18 0
-220 -20 -18 0
-222 221 0
-222 16 0
-222 15 -18 0
-222 -15 18 0
222 -221 15 18 -16 0
222 -221 -15 -18 -16 0
224 221 -15 0
224 -221 15 0
-224 221 15 0
-224 -221 -15 0
223 18 -16 0
223 -18 16 0
-223 18 16 0
-223 -18 -16 0
-225 224 0
-225 14 0
-225 13 -16 0
-225 -13 16 0
225 -224 13 16 -14 0
225 -224 -13 -16 -14 0
227 224 -13 0
227 -224 13 0
-227 224 13 0
-227 -224 -13 0
226 16 -14 0
226 -16 14 0
-226 16 14 0
-226 -16 -14 0
-228 227 0
-228 12 0
-228 11 -14 0
-228 -11 14 0
228 -227 11 14 -12 0
228 -227 -11 -14 -12 0
230 227 -11 0
230 -227 11 0
-230 227 11 0
-230 -227 -11 0
229 14 -12 0
229 -14 12 0
-229 14 12 0
-229 -14 -12 0
-231 230 0
-231 10 0
-231 9 -12 0
-231 -9 12 0
231 -230 9 12 -10 0
231 -230 -9 -12 -10 0
233 230 -9 0
233 -230 9 0
-233 230 9 0
-233 -230 -9 0
232 12 -10 0
232 -12 10 0
-232 12 10 0
-232 -12 -10 0
-234 233 0
-234 8 0
-234 7 -10 0
-234 -7 10 0
234 -233 7 10 -8 0
234 -233 -7 -10 -8 0
236 233 -7 0
236 -233 7 0
-236 233 7 0
-236 -233 -7 0
235 10 -8 0
235 -10 8 0
-235 10 8 0
-235 -10 -8 0
-237 236 0
-237 6 0
-237 5 -8 0
-237 -5 8 0
237 -236 5 8 -6 0
237 -236 -5 -8 -6 0
239 236 -5 0
239 -236 5 0
-239 236 5 0
-239 -236 -5 0
238 8 -6 0
238 -8 6 0
-238 8 6 0
-238 -8 -6 0
-240 239 0
-240 4 0
-240 3 -6 0
-240 -3 6 0
240 -239 3 6 -4 0
240 -239 -3 -6 -4 0
242 239 -3 0
242 -239 3 0
-242 239 3 0
-242 -239 -3 0
241 6 -4 0
241 -6 4 0
-241 6 4 0
-241 -6 -4 0
-243 242 0
-243 2 0
-243 1 -4 0
-243 -1 4 0
243 -242 1 4 -2 0
243 -242 -1 -4 -2 0
245 242 -1 0
245 -242 1 0
-245 242 1 0
-245 -242 -1 0
244 4 -2 0
244 -4 2 0
-244 4 2 0
-244 -4 -2 0
-245 0
-242 0
-244 0
-239 0
-241 0
-236 0
-238 0
-233 0
-235 0
-230 0
-232 0
-227 0
-229 0
-224 0
-226 0
-221 0
-223 0
-218 0
-220 0
-215 0
-217 0
-212 0
-214 0
-209 0
-211 0
-206 0
-208 0
-203 0
-205 0
-200 0
-202 0
-197 0
-199 0
-194 0
-196 0
-191 0
-193 0
-188 0
-190 0
-185 0
-187 0
-182 0
-184 0
-179 0
-181 0
-176 0
-178 0
-173 0
-175 0
-170 0
-172 0
-167 0
-169 0
-164 0
-166 0
-161 0
-163 0
-158 0
-160 0
-155 0
-157 0
-152 0
-154 0
-149 0
-151 0
-146 0
-148 0
-143 0
-145 0
-140 0
-142 0
-137 0
-139 0
-134 0
-136 0
-131 0
-133 0
-128 0
-130 0
-125 0
-127 0
-122 0
-124 0
-119 0
-121 0
-116 0
-118 0
-113 0
-115 0
-110 0
-112 0
-107 0
-109 0
-100 0
-106 0
